c Easy satisfiable CNF formula
c 50 variables, 150 clauses
c Should solve in under 1 second
p cnf 50 150
1 2 3 0
-1 4 5 0
2 -3 6 0
-2 7 8 0
3 -4 9 0
-3 10 11 0
4 -5 12 0
-4 13 14 0
5 -6 15 0
-5 16 17 0
6 -7 18 0
-6 19 20 0
7 -8 21 0
-7 22 23 0
8 -9 24 0
-8 25 26 0
9 -10 27 0
-9 28 29 0
10 -11 30 0
-10 31 32 0
11 -12 33 0
-11 34 35 0
12 -13 36 0
-12 37 38 0
13 -14 39 0
-13 40 41 0
14 -15 42 0
-14 43 44 0
15 -16 45 0
-15 46 47 0
16 -17 48 0
-16 49 50 0
17 -18 1 0
-17 2 3 0
18 -19 4 0
-18 5 6 0
19 -20 7 0
-19 8 9 0
20 -21 10 0
-20 11 12 0
21 -22 13 0
-21 14 15 0
22 -23 16 0
-22 17 18 0
23 -24 19 0
-23 20 21 0
24 -25 22 0
-24 23 24 0
25 -26 25 0
-25 26 27 0
26 -27 28 0
-26 29 30 0
27 -28 31 0
-27 32 33 0
28 -29 34 0
-28 35 36 0
29 -30 37 0
-29 38 39 0
30 -31 40 0
-30 41 42 0
31 -32 43 0
-31 44 45 0
32 -33 46 0
-32 47 48 0
33 -34 49 0
-33 50 1 0
34 -35 2 0
-34 3 4 0
35 -36 5 0
-35 6 7 0
36 -37 8 0
-36 9 10 0
37 -38 11 0
-37 12 13 0
38 -39 14 0
-38 15 16 0
39 -40 17 0
-39 18 19 0
40 -41 20 0
-40 21 22 0
41 -42 23 0
-41 24 25 0
42 -43 26 0
-42 27 28 0
43 -44 29 0
-43 30 31 0
44 -45 32 0
-44 33 34 0
45 -46 35 0
-45 36 37 0
46 -47 38 0
-46 39 40 0
47 -48 41 0
-47 42 43 0
48 -49 44 0
-48 45 46 0
49 -50 47 0
-49 48 49 0
50 -1 50 0
-50 1 2 0
1 -2 -3 0
2 -4 -5 0
3 -6 -7 0
4 -8 -9 0
5 -10 -11 0
6 -12 -13 0
7 -14 -15 0
8 -16 -17 0
9 -18 -19 0
10 -20 -21 0
11 -22 -23 0
12 -24 -25 0
13 -26 -27 0
14 -28 -29 0
15 -30 -31 0
16 -32 -33 0
17 -34 -35 0
18 -36 -37 0
19 -38 -39 0
20 -40 -41 0
21 -42 -43 0
22 -44 -45 0
23 -46 -47 0
24 -48 -49 0
25 -50 -1 0
26 27 28 0
29 30 31 0
32 33 34 0
35 36 37 0
38 39 40 0
41 42 43 0
44 45 46 0
47 48 49 0
50 1 2 0
3 4 5 0
6 7 8 0
9 10 11 0
12 13 14 0
15 16 17 0
18 19 20 0
21 22 23 0
24 25 26 0
27 28 29 0
30 31 32 0
33 34 35 0
36 37 38 0
39 40 41 0
42 43 44 0
45 46 47 0
48 49 50 0
